c turning on binary mode checking
c parsing input formula with 259840 variables and 1039929 clauses
c finished parsing, read 24617999 bytes from proof file
c detected empty clause; start verification via backward checking
c 24025 of 1039929 clauses in core                            
c 31305 of 620510 lemmas in core using 194095 resolution steps
c 0 RAT lemmas in core; 1783 redundant literals in core lemmas
s VERIFIED
c verification time: 3.387 seconds
